************************************************************************
file with basedata            : c2119_.bas
initial value random generator: 1928581862
************************************************************************
projects                      :  1
jobs (incl. supersource/sink ):  18
horizon                       :  133
RESOURCES
  - renewable                 :  2   R
  - nonrenewable              :  2   N
  - doubly constrained        :  0   D
************************************************************************
PROJECT INFORMATION:
pronr.  #jobs rel.date duedate tardcost  MPM-Time
    1     16      0       18        3       18
************************************************************************
PRECEDENCE RELATIONS:
jobnr.    #modes  #successors   successors
   1        1          3           2   3   4
   2        3          3           8  10  11
   3        3          3           6   7  11
   4        3          3           5   7  10
   5        3          2           9  12
   6        3          3           8  10  12
   7        3          3           8  12  14
   8        3          3          15  16  17
   9        3          2          11  13
  10        3          3          13  14  16
  11        3          2          14  15
  12        3          2          13  16
  13        3          2          15  17
  14        3          1          17
  15        3          1          18
  16        3          1          18
  17        3          1          18
  18        1          0        
************************************************************************
REQUESTS/DURATIONS:
jobnr. mode duration  R 1  R 2  N 1  N 2
------------------------------------------------------------------------
  1      1     0       0    0    0    0
  2      1     3       0    8    8    0
         2     7       0    7    8    0
         3     8       0    5    8    0
  3      1     3       0    2    1    0
         2     5       5    0    0    2
         3    10       5    0    0    1
  4      1     2       9    0    0    5
         2     3       0    6    9    0
         3     9       9    0    0    3
  5      1     4       9    0    0    4
         2     9       7    0    0    4
         3    10       0    7    0    3
  6      1     1       3    0    7    0
         2     3       0    6    0    7
         3     5       0    4    7    0
  7      1     3       7    0    0    3
         2     3       0    4    4    0
         3    10       0    2    3    0
  8      1     3       2    0    9    0
         2     3       0   10    0    3
         3     6       0    9    9    0
  9      1     1       1    0    2    0
         2     3       0    8    0    9
         3     5       0    8    0    8
 10      1     5       7    0    0    4
         2     9       5    0    6    0
         3    10       0    4    0    3
 11      1     1       8    0    6    0
         2     5       5    0    6    0
         3    10       0    3    6    0
 12      1     4       0    9    7    0
         2     4       6    0    0    6
         3     5       0    9    0    2
 13      1     1       0    7    5    0
         2     9       0    5    0    7
         3    10       0    4    3    0
 14      1     5       8    0    6    0
         2     6       6    0    6    0
         3     7       4    0    4    0
 15      1     3       0    5    4    0
         2     6       0    5    3    0
         3     8       0    4    0    6
 16      1     6       7    0    2    0
         2     8       0    7    1    0
         3    10       0    5    1    0
 17      1     4       0    8    9    0
         2     8       6    0    4    0
         3    10       0    3    0    8
 18      1     0       0    0    0    0
************************************************************************
RESOURCEAVAILABILITIES:
  R 1  R 2  N 1  N 2
   18   17   69   49
************************************************************************
